VALUE 741
1 780
1 782
2 783
3 772
4 773
5 774
6 775
7 776
8 777
9 778
10 779
11 780
12 781
13 782
14 782
28 53
29 54
30 43
31 44
32 45
33 46
34 47
35 48
36 49
37 50
38 51
39 52
40 53
41 53
43 58
44 59
45 60
46 61
47 62
48 63
49 64
50 65
51 66
52 67
53 68
54 68
55 80
56 81
57 70
58 71
59 72
60 73
61 74
62 75
63 76
64 77
65 78
66 79
67 80
68 80
70 85
71 86
72 87
73 88
74 89
75 90
76 91
77 92
78 93
79 94
80 95
81 95
82 107
83 108
84 97
85 98
86 99
87 100
88 101
89 102
90 103
91 104
92 105
93 106
94 107
95 107
97 112
98 113
99 114
100 115
101 116
102 117
103 118
104 119
105 120
106 121
107 122
108 122
109 134
110 135
111 124
112 125
113 126
114 127
115 128
116 129
117 130
118 131
119 132
120 133
121 134
122 134
124 139
125 140
126 141
127 142
128 143
129 144
130 145
131 146
132 147
133 148
134 149
135 149
136 161
137 162
138 151
139 152
140 153
141 154
142 155
143 156
144 157
145 158
146 159
147 160
148 161
149 161
151 166
152 167
153 168
154 169
155 170
156 171
157 172
158 173
159 174
160 175
161 176
162 176
163 188
164 189
165 178
166 179
167 180
168 181
169 182
170 183
171 184
172 185
173 186
174 187
175 188
176 188
178 193
179 194
180 195
181 196
182 197
183 198
184 199
185 200
186 201
187 202
188 203
189 203
190 215
191 216
192 205
193 206
194 207
195 208
196 209
197 210
198 211
199 212
200 213
201 214
202 215
203 215
205 220
206 221
207 222
208 223
209 224
210 225
211 226
212 227
213 228
214 229
215 230
216 230
217 242
218 243
219 232
220 233
221 234
222 235
223 236
224 237
225 238
226 239
227 240
228 241
229 242
230 242
232 247
233 248
234 249
235 250
236 251
237 252
238 253
239 254
240 255
241 256
242 257
243 257
244 269
245 270
246 259
247 260
248 261
249 262
250 263
251 264
252 265
253 266
254 267
255 268
256 269
257 269
259 274
260 275
261 276
262 277
263 278
264 279
265 280
266 281
267 282
268 283
269 284
270 284
271 296
272 297
273 286
274 287
275 288
276 289
277 290
278 291
279 292
280 293
281 294
282 295
283 296
284 296
286 301
287 302
288 303
289 304
290 305
291 306
292 307
293 308
294 309
295 310
296 311
297 311
298 323
299 324
300 313
301 314
302 315
303 316
304 317
305 318
306 319
307 320
308 321
309 322
310 323
311 323
313 328
314 329
315 330
316 331
317 332
318 333
319 334
320 335
321 336
322 337
323 338
324 338
325 350
326 351
327 340
328 341
329 342
330 343
331 344
332 345
333 346
334 347
335 348
336 349
337 350
338 350
340 355
341 356
342 357
343 358
344 359
345 360
346 361
347 362
348 363
349 364
350 365
351 365
352 377
353 378
354 367
355 368
356 369
357 370
358 371
359 372
360 373
361 374
362 375
363 376
364 377
365 377
367 382
368 383
369 384
370 385
371 386
372 387
373 388
374 389
375 390
376 391
377 392
378 392
379 404
380 405
381 394
382 395
383 396
384 397
385 398
386 399
387 400
388 401
389 402
390 403
391 404
392 404
394 409
395 410
396 411
397 412
398 413
399 414
400 415
401 416
402 417
403 418
404 419
405 419
406 431
407 432
408 421
409 422
410 423
411 424
412 425
413 426
414 427
415 428
416 429
417 430
418 431
419 432
421 436
422 437
423 438
424 439
425 440
426 441
427 442
428 443
429 444
430 445
431 446
432 446
433 458
434 459
435 448
436 449
437 450
438 451
439 452
440 453
441 454
442 455
443 456
444 457
445 458
446 458
448 463
449 464
450 465
451 466
452 467
453 468
454 469
455 470
456 471
457 472
458 473
459 473
460 485
461 486
462 475
463 476
464 477
465 478
466 479
467 480
468 481
469 482
470 483
471 484
472 485
473 485
475 490
476 491
477 492
478 493
479 494
480 495
481 496
482 497
483 498
484 499
485 500
486 500
487 512
488 513
489 502
490 503
491 504
492 505
493 506
494 507
495 508
496 509
497 510
498 511
499 512
500 512
502 517
503 518
504 519
505 520
506 521
507 522
508 523
509 524
510 525
511 526
512 527
513 527
514 539
515 540
516 529
517 530
518 531
519 532
520 533
521 534
522 535
523 536
524 537
525 538
526 539
527 539
529 544
530 545
531 546
532 547
533 548
534 549
535 550
536 551
537 552
538 553
539 554
540 554
541 566
542 567
543 556
544 557
545 558
546 559
547 560
548 561
549 562
550 563
551 564
552 565
553 566
554 566
556 571
557 572
558 573
559 574
560 575
561 576
562 577
563 578
564 579
565 580
566 581
567 581
568 593
569 594
570 583
571 584
572 585
573 586
574 587
575 588
576 589
577 590
578 591
579 592
580 593
581 593
583 598
584 599
585 600
586 601
587 602
588 603
589 604
590 605
591 606
592 607
593 608
594 608
595 620
596 621
597 610
598 611
599 612
600 613
601 614
602 615
603 616
604 617
605 618
606 619
607 620
608 620
610 625
611 626
612 627
613 628
614 629
615 630
616 631
617 632
618 633
619 634
620 635
621 635
622 647
623 648
624 637
625 638
626 639
627 640
628 641
629 642
630 643
631 644
632 645
633 646
634 647
635 647
637 652
638 653
639 654
640 655
641 656
642 657
643 658
644 659
645 660
646 661
647 662
648 662
649 674
650 675
651 664
652 665
653 666
654 667
655 668
656 669
657 670
658 671
659 672
660 673
661 674
662 674
664 679
665 680
666 681
667 682
668 683
669 684
670 685
671 686
672 687
673 688
674 689
675 689
676 701
677 702
678 691
679 692
680 693
681 694
682 695
683 696
684 697
685 698
686 699
687 700
688 701
689 701
691 706
692 707
693 708
694 709
695 710
696 711
697 712
698 713
699 714
700 715
701 716
702 716
703 728
704 729
705 718
706 719
707 720
708 721
709 722
710 723
711 724
712 725
713 726
714 727
715 728
716 728
718 733
719 734
720 735
721 736
722 737
723 738
724 739
725 740
726 741
727 742
728 743
729 743
730 755
731 756
732 745
733 746
734 747
735 748
736 749
737 750
738 751
739 752
740 753
741 754
742 755
743 755
745 759
745 760
746 760
746 761
747 761
747 762
748 762
748 763
749 763
749 764
750 764
750 765
751 765
751 766
752 766
752 767
753 768
753 767
754 769
755 769
755 770
755 757
756 770
756 758
760 772
761 773
762 774
763 775
764 776
765 777
766 778
767 779
768 780
769 781
770 782
770 783